400
400
280
280
280
279
279
278
278
277
276
276
275
274
274
272
269
269
268
267
267
266
266
265
264
264
264
263
263
263
263
262
262
261
261
261
260
259
257
256
254
254
254
253
252
252
252
252
251
250
250
250
249
249
249
248
248
247
247
246
246
245
245
245
244
244
242
242
240
239
239
238
237
236
235
235
235
234
233
233
233
232
232
230
230
228
227
226
226
226
225
225
224
223
222
222
222
221
221
220
220
219
218
218
217
217
216
216
215
215
215
214
213
213
212
211
211
211
210
210
208
208
208
207
206
206
206
206
205
205
205
205
205
204
204
204
203
203
202
202
202
201
200
199
199
198
197
196
196
196
195
195
195
194
193
193
191
190
190
190
188
187
187
186
186
184
184
183
183
183
183
183
183
182
182
181
181
180
180
179
179
179
178
178
178
178
177
177
176
176
175
174
174
174
174
174
173
173
173
173
172
172
169
169
168
168
167
166
166
165
164
163
163
162
161
159
159
158
158
156
156
152
151
151
149
149
148
148
147
147
146
145
145
145
142
142
142
141
141
141
140
139
138
137
137
135
132
132
132
132
131
131
130
130
130
129
129
129
128
128
128
128
127
125
125
124
124
124
124
123
122
122
122
120
120
120
119
119
119
118
117
117
116
116
115
114
114
112
112
111
111
110
109
108
108
107
106
105
103
102
101
101
101
101
100
100
100
100
99
98
98
98
97
95
94
94
94
93
93
93
92
92
91
89
89
89
88
88
87
87
86
84
84
84
83
81
80
80
80
79
76
76
76
76
74
72
72
71
71
71
71
70
69
69
68
68
68
67
67
67
66
65
64
64
63
62
61
60
59
58
58
57
57
56
56
56
55
54
54
52
52
52
51
50
50
47
47
46
45
45
45
45
45
44
44
44
43
43
42
42
41
40
